NAME : X_30_seed_123_id_6
TYPE : CVRP
DIMENSION : 237
EDGE_WEIGHT_TYPE : EUC_2D
CAPACITY : 18
NODE_COORD_SECTION
1	0	0
2	92	356
3	892	237
4	47	361
5	639	347
6	276	728
7	204	595
8	294	574
9	97	678
10	940	7
11	210	827
12	580	102
13	630	535
14	734	277
15	102	317
16	611	307
17	275	491
18	37	910
19	768	952
20	896	771
21	118	177
22	754	29
23	528	134
24	747	504
25	538	936
26	406	687
27	413	701
28	891	192
29	409	363
30	430	81
31	860	188
32	500	82
33	840	904
34	915	73
35	169	155
36	183	764
37	598	17
38	968	82
39	665	928
40	60	575
41	362	564
42	744	580
43	69	963
44	792	76
45	795	198
46	951	963
47	388	300
48	779	16
49	359	560
50	421	308
51	410	433
52	599	740
53	331	978
54	399	690
55	37	726
56	737	886
57	481	650
58	13	152
59	117	515
60	804	250
61	41	633
62	273	10
63	927	54
64	713	400
65	781	464
66	325	195
67	635	822
68	367	832
69	938	755
70	173	483
71	234	507
72	284	948
73	944	444
74	100	478
75	703	954
76	555	520
77	681	749
78	665	463
79	615	926
80	858	639
81	488	820
82	52	405
83	830	585
84	982	452
85	48	612
86	905	460
87	952	181
88	608	228
89	453	555
90	738	248
91	816	865
92	147	513
93	151	593
94	265	671
95	843	894
96	321	772
97	760	607
98	858	461
99	586	91
100	187	351
101	978	396
102	976	604
103	314	173
104	722	792
105	695	592
106	877	755
107	461	915
108	292	250
109	30	5
110	508	971
111	89	120
112	346	14
113	970	857
114	326	677
115	983	90
116	470	130
117	302	639
118	529	139
119	944	643
120	529	788
121	854	718
122	598	216
123	781	308
124	66	918
125	398	248
126	36	197
127	422	628
128	700	903
129	458	470
130	656	795
131	490	318
132	598	144
133	708	201
134	913	698
135	563	470
136	347	112
137	489	916
138	619	715
139	961	820
140	678	632
141	919	648
142	437	536
143	72	279
144	142	790
145	913	349
146	520	886
147	633	91
148	857	906
149	686	474
150	523	28
151	437	490
152	422	9
153	741	867
154	724	490
155	517	980
156	432	1000
157	352	522
158	676	662
159	733	594
160	324	369
161	14	510
162	985	866
163	959	825
164	684	737
165	500	506
166	399	53
167	975	366
168	162	13
169	53	603
170	481	232
171	171	464
172	327	857
173	426	278
174	71	512
175	978	579
176	563	46
177	346	332
178	785	964
179	683	303
180	401	660
181	320	276
182	26	927
183	376	502
184	378	376
185	659	505
186	429	192
187	19	925
188	451	401
189	838	143
190	977	32
191	219	375
192	931	785
193	666	598
194	225	394
195	122	548
196	682	965
197	789	737
198	160	619
199	350	737
200	488	906
201	799	892
202	969	133
203	211	282
204	268	708
205	170	897
206	474	230
207	50	749
208	193	464
209	982	970
210	505	693
211	98	215
212	685	207
213	582	266
214	955	675
215	246	7
216	154	427
217	794	813
218	710	430
219	625	898
220	301	261
221	639	826
222	913	192
223	2	194
224	532	897
225	870	328
226	906	39
227	650	653
228	617	606
229	640	40
230	20	849
231	18	879
232	311	939
233	489	255
234	71	4
235	56	575
236	556	74
237	466	512
DEMAND_SECTION
1	0
2	1
3	1
4	1
5	1
6	1
7	1
8	1
9	1
10	1
11	1
12	1
13	1
14	1
15	1
16	1
17	1
18	1
19	1
20	1
21	1
22	1
23	1
24	1
25	1
26	1
27	1
28	1
29	1
30	1
31	1
32	1
33	1
34	1
35	1
36	1
37	1
38	1
39	1
40	1
41	1
42	1
43	1
44	1
45	1
46	1
47	1
48	1
49	1
50	1
51	1
52	1
53	1
54	1
55	1
56	1
57	1
58	1
59	1
60	1
61	1
62	1
63	1
64	1
65	1
66	1
67	1
68	1
69	1
70	1
71	1
72	1
73	1
74	1
75	1
76	1
77	1
78	1
79	1
80	1
81	1
82	1
83	1
84	1
85	1
86	1
87	1
88	1
89	1
90	1
91	1
92	1
93	1
94	1
95	1
96	1
97	1
98	1
99	1
100	1
101	1
102	1
103	1
104	1
105	1
106	1
107	1
108	1
109	1
110	1
111	1
112	1
113	1
114	1
115	1
116	1
117	1
118	1
119	1
120	1
121	1
122	1
123	1
124	1
125	1
126	1
127	1
128	1
129	1
130	1
131	1
132	1
133	1
134	1
135	1
136	1
137	1
138	1
139	1
140	1
141	1
142	1
143	1
144	1
145	1
146	1
147	1
148	1
149	1
150	1
151	1
152	1
153	1
154	1
155	1
156	1
157	1
158	1
159	1
160	1
161	1
162	1
163	1
164	1
165	1
166	1
167	1
168	1
169	1
170	1
171	1
172	1
173	1
174	1
175	1
176	1
177	1
178	1
179	1
180	1
181	1
182	1
183	1
184	1
185	1
186	1
187	1
188	1
189	1
190	1
191	1
192	1
193	1
194	1
195	1
196	1
197	1
198	1
199	1
200	1
201	1
202	1
203	1
204	1
205	1
206	1
207	1
208	1
209	1
210	1
211	1
212	1
213	1
214	1
215	1
216	1
217	1
218	1
219	1
220	1
221	1
222	1
223	1
224	1
225	1
226	1
227	1
228	1
229	1
230	1
231	1
232	1
233	1
234	1
235	1
236	1
237	1
DEPOT_SECTION
1
-1
EOF
